Nx := 8192
Ny := 1
Nz := 1
dx := 4e-9
dy := 1e-9
dz := 1e-9
Tx := Nx*dx
Ty := Ny*dy
Tz := Nz*dz
// autokernel = true
setgridsize(Nx,Ny,Nz)
setcellsize(dx,dy,dz)
setpbc(2,256,0)
// chunkxyzc(Nx,1,Nz,3)
save(m)
save(msat)